Current time: 2023-08-25T17:54:34.986598+08:00
============================================================
running solver cbc
warm start? False
============================================================
WARNING: Constant objective detected, replacing with a placeholder to prevent
    solver failure.
Welcome to the CBC MILP Solver 
Version: 2.10.10 
Build Date: Apr 18 2023 

command line - E:\works\windows_solvers\cbc\bin\cbc.exe -printingOptions all -import C:\Users\z98hu\AppData\Local\Temp\tmpguk16yw_.pyomo.lp -stat=1 -solve -solu C:\Users\z98hu\AppData\Local\Temp\tmpguk16yw_.pyomo.soln (default strategy 1)
Option for printingOptions changed from normal to all
Presolve determined that the problem was infeasible with tolerance of 1e-08
Presolved model looks infeasible - will use unpresolved


Problem has 3 rows, 3 columns (0 with objective) and 5 elements
There are 1 singletons with no objective 
Column breakdown:
1 of type 0.0->inf, 0 of type 0.0->up, 0 of type lo->inf, 
1 of type lo->up, 1 of type free, 0 of type fixed, 
0 of type -inf->0.0, 0 of type -inf->up, 0 of type 0.0->1.0 
Row breakdown:
0 of type E 0.0, 1 of type E 1.0, 0 of type E -1.0, 
0 of type E other, 0 of type G 0.0, 0 of type G 1.0, 
1 of type G other, 0 of type L 0.0, 0 of type L 1.0, 
1 of type L other, 0 of type Range 0.0->1.0, 0 of type Range other, 
0 of type Free 
Presolve determined that the problem was infeasible with tolerance of 1e-08
Analysis indicates model infeasible or unbounded
0  Obj 0 Primal inf 21 (2) Dual inf 2.0099997 (3) w.o. free dual inf (2)
2  Obj 0 Primal inf 0.9999999 (1)
Primal infeasible - objective value 0
PrimalInfeasible objective 0 - 2 iterations time 0.002

Result - Linear relaxation infeasible

Enumerated nodes:           0
Total iterations:           0
Time (CPU seconds):         0.01
Time (Wallclock Seconds):   0.01

Total time (CPU seconds):       0.01   (Wallclock seconds):       0.01

WARNING: Loading a SolverResults object with a warning status into
    model.name="unknown";
      - termination condition: infeasible
      - message from solver: <undefined>
ERROR: evaluating object as numeric value: 变量x
        (object: <class 'pyomo.core.base.var.ScalarVar'>)
    No value for uninitialized NumericValue object 变量x
Traceback (most recent call last):
  File "E:\works\jubilant-adventure2\microgrid_base\cplex_abnormal_exit_condition_debug\alternative_solver.py", line 205, in <module>
    print(f"X={value(x)}, Y={value(y)}")
               ^^^^^^^^
  File "pyomo\core\expr\numvalue.pyx", line 153, in pyomo.core.expr.numvalue.value
  File "pyomo\core\expr\numvalue.pyx", line 140, in pyomo.core.expr.numvalue.value
ValueError: No value for uninitialized NumericValue object 变量x
